dates = {'2021-12-14','2021-12-15','2021-12-16','2021-12-17','2021-12-18','2021-12-19','2021-12-20','2021-12-21','2021-12-22','2021-12-23'};

daysOfWeek = [Tuesday,Wednesday,Thursday,Friday,Saturday,Sunday,Monday,Tuesday,Wednesday,Thursday];

% For this week, how many people will be here.
numPeople = [119,127,135,154,154,154,146,146,144,153];

% Physical workers need 50 to 100 % more nutrients per day.
numPhysicalWorkers = [43.5,44.0,44.0,53.5,53.5,53.5,53.5,53.5,53.5,56.0];

% Males need +25% more nutrients per day.
numMen = [94,101,108,126,126,126,126,119,119,128];

% Num people who do not eat categories. contains = {none, meat, milk, gluten, egg, nut, seed, sugars}
numRefusals = [| 0,1,2,6,0,0,0,0 | 0,0,0,4,0,1,0,0 | 0,4,8,4,0,0,1,0 | 0,0,3,1,0,0,13,4 | 0,0,3,1,0,0,13,4 | 0,0,3,1,0,0,13,4 | 0,9,0,14,7,0,0,0 | 0,9,0,14,7,0,0,0 | 0,0,4,5,9,12,0,0 | 0,0,0,0,0,1,0,0 |];

